\ This file has been generated by DOcplex
\ ENCODING=ISO-8859-1
\Problem name: TRP_BigM

Minimize
 obj: thr_0_31_0 + thr_0_31_180 + thr_0_31_360 + thr_1_17_0 + thr_1_17_180
      + thr_1_17_360 + thr_2_5_0 + thr_2_5_180 + thr_2_5_360 + thr_3_39_0
      + thr_3_39_180 + thr_3_39_360 + thr_4_37_0 + thr_4_37_180 + thr_4_37_360
Subject To
 c1: - t_0_0 + t_0_1 >= 764
 c2: - t_0_1 + t_0_2 >= 137
 c3: - t_0_2 + t_0_3 >= 0
 c4: - t_0_3 + t_0_4 >= 105
 c5: - t_0_4 + t_0_5 >= 0
 c6: - t_0_5 + t_0_6 >= 217
 c7: - t_0_6 + t_0_7 >= 0
 c8: - t_0_7 + t_0_8 >= 108
 c9: - t_0_8 + t_0_9 >= 0
 c10: - t_0_9 + t_0_10 >= 162
 c11: - t_0_10 + t_0_11 >= 0
 c12: - t_0_11 + t_0_12 >= 425
 c13: - t_0_12 + t_0_13 >= 0
 c14: - t_0_13 + t_0_14 >= 300
 c15: - t_0_14 + t_0_15 >= 0
 c16: - t_0_15 + t_0_16 >= 346
 c17: - t_0_16 + t_0_17 >= 240
 c18: - t_0_17 + t_0_18 >= 463
 c19: - t_0_18 + t_0_19 >= 0
 c20: - t_0_19 + t_0_20 >= 241
 c21: - t_0_20 + t_0_21 >= 0
 c22: - t_0_21 + t_0_22 >= 496
 c23: - t_0_22 + t_0_23 >= 6360
 c24: - t_0_23 + t_0_24 >= 390
 c25: - t_0_24 + t_0_25 >= 0
 c26: - t_0_25 + t_0_26 >= 280
 c27: - t_0_26 + t_0_27 >= 0
 c28: - t_0_27 + t_0_28 >= 530
 c29: - t_0_28 + t_0_29 >= 300
 c30: - t_0_29 + t_0_30 >= 464
 c31: - t_0_30 + t_0_31 >= 0
 c32: - t_0_31 + t_0_32 >= 556
 c33: - t_1_0 + t_1_1 >= 0
 c34: - t_1_1 + t_1_2 >= 92
 c35: - t_1_2 + t_1_3 >= 0
 c36: - t_1_3 + t_1_4 >= 80
 c37: - t_1_4 + t_1_5 >= 0
 c38: - t_1_5 + t_1_6 >= 122
 c39: - t_1_6 + t_1_7 >= 40
 c40: - t_1_7 + t_1_8 >= 480
 c41: - t_1_8 + t_1_9 >= 180
 c42: - t_1_9 + t_1_10 >= 240
 c43: - t_1_10 + t_1_11 >= 0
 c44: - t_1_11 + t_1_12 >= 210
 c45: - t_1_12 + t_1_13 >= 30
 c46: - t_1_13 + t_1_14 >= 300
 c47: - t_1_14 + t_1_15 >= 0
 c48: - t_1_15 + t_1_16 >= 180
 c49: - t_1_16 + t_1_17 >= 0
 c50: - t_1_17 + t_1_18 >= 300
 c51: - t_2_0 + t_2_1 >= 0
 c52: - t_2_1 + t_2_2 >= 0
 c53: - t_2_2 + t_2_3 >= 30
 c54: - t_2_3 + t_2_4 >= 110
 c55: - t_2_4 + t_2_5 >= 0
 c56: - t_2_5 + t_2_6 >= 250
 c57: - t_3_0 + t_3_1 >= 60
 c58: - t_3_1 + t_3_2 >= 152
 c59: - t_3_2 + t_3_3 >= 0
 c60: - t_3_3 + t_3_4 >= 118
 c61: - t_3_4 + t_3_5 >= 30
 c62: - t_3_5 + t_3_6 >= 90
 c63: - t_3_6 + t_3_7 >= 30
 c64: - t_3_7 + t_3_8 >= 90
 c65: - t_3_8 + t_3_9 >= 30
 c66: - t_3_9 + t_3_10 >= 119
 c67: - t_3_10 + t_3_11 >= 0
 c68: - t_3_11 + t_3_12 >= 45
 c69: - t_3_12 + t_3_13 >= 0
 c70: - t_3_13 + t_3_14 >= 136
 c71: - t_3_14 + t_3_15 >= 60
 c72: - t_3_15 + t_3_16 >= 210
 c73: - t_3_16 + t_3_17 >= 30
 c74: - t_3_17 + t_3_18 >= 150
 c75: - t_3_18 + t_3_19 >= 30
 c76: - t_3_19 + t_3_20 >= 150
 c77: - t_3_20 + t_3_21 >= 30
 c78: - t_3_21 + t_3_22 >= 90
 c79: - t_3_22 + t_3_23 >= 30
 c80: - t_3_23 + t_3_24 >= 178
 c81: - t_3_24 + t_3_25 >= 0
 c82: - t_3_25 + t_3_26 >= 80
 c83: - t_3_26 + t_3_27 >= 0
 c84: - t_3_27 + t_3_28 >= 122
 c85: - t_3_28 + t_3_29 >= 40
 c86: - t_3_29 + t_3_30 >= 480
 c87: - t_3_30 + t_3_31 >= 180
 c88: - t_3_31 + t_3_32 >= 240
 c89: - t_3_32 + t_3_33 >= 0
 c90: - t_3_33 + t_3_34 >= 210
 c91: - t_3_34 + t_3_35 >= 30
 c92: - t_3_35 + t_3_36 >= 300
 c93: - t_3_36 + t_3_37 >= 0
 c94: - t_3_37 + t_3_38 >= 180
 c95: - t_3_38 + t_3_39 >= 0
 c96: - t_3_39 + t_3_40 >= 300
 c97: - t_4_0 + t_4_1 >= 0
 c98: - t_4_1 + t_4_2 >= 96
 c99: - t_4_2 + t_4_3 >= 0
 c100: - t_4_3 + t_4_4 >= 270
 c101: - t_4_4 + t_4_5 >= 30
 c102: - t_4_5 + t_4_6 >= 240
 c103: - t_4_6 + t_4_7 >= 0
 c104: - t_4_7 + t_4_8 >= 240
 c105: - t_4_8 + t_4_9 >= 0
 c106: - t_4_9 + t_4_10 >= 320
 c107: - t_4_10 + t_4_11 >= 40
 c108: - t_4_11 + t_4_12 >= 107
 c109: - t_4_12 + t_4_13 >= 0
 c110: - t_4_13 + t_4_14 >= 72
 c111: - t_4_14 + t_4_15 >= 0
 c112: - t_4_15 + t_4_16 >= 211
 c113: - t_4_16 + t_4_17 >= 30
 c114: - t_4_17 + t_4_18 >= 150
 c115: - t_4_18 + t_4_19 >= 30
 c116: - t_4_19 + t_4_20 >= 90
 c117: - t_4_20 + t_4_21 >= 30
 c118: - t_4_21 + t_4_22 >= 150
 c119: - t_4_22 + t_4_23 >= 30
 c120: - t_4_23 + t_4_24 >= 300
 c121: - t_4_24 + t_4_25 >= 180
 c122: - t_4_25 + t_4_26 >= 90
 c123: - t_4_26 + t_4_27 >= 0
 c124: - t_4_27 + t_4_28 >= 30
 c125: - t_4_28 + t_4_29 >= 0
 c126: - t_4_29 + t_4_30 >= 150
 c127: - t_4_30 + t_4_31 >= 30
 c128: - t_4_31 + t_4_32 >= 90
 c129: - t_4_32 + t_4_33 >= 30
 c130: - t_4_33 + t_4_34 >= 90
 c131: - t_4_34 + t_4_35 >= 30
 c132: - t_4_35 + t_4_36 >= 110
 c133: - t_4_36 + t_4_37 >= 0
 c134: - t_4_37 + t_4_38 >= 250
 c135: t_0_6 - t_1_1 + 43200 y_0_5_1_1 <= 43200
 c136: t_1_2 - t_0_5 - 43200 y_0_5_1_1 <= 0
 c137: t_0_8 - t_1_3 + 43200 y_0_7_1_3 <= 43200
 c138: t_1_4 - t_0_7 - 43200 y_0_7_1_3 <= 0
 c139: t_0_10 - t_1_5 + 43200 y_0_9_1_5 <= 43200
 c140: t_1_6 - t_0_9 - 43200 y_0_9_1_5 <= 0
 c141: t_0_12 - t_1_7 + 43200 y_0_11_1_7 <= 43200
 c142: t_1_8 - t_0_11 - 43200 y_0_11_1_7 <= 0
 c143: t_0_14 - t_1_9 + 43200 y_0_13_1_9 <= 43200
 c144: t_1_10 - t_0_13 - 43200 y_0_13_1_9 <= 0
 c145: t_0_16 - t_1_11 + 43200 y_0_15_1_11 <= 43200
 c146: t_1_12 - t_0_15 - 43200 y_0_15_1_11 <= 0
 c147: t_0_18 - t_1_13 + 43200 y_0_17_1_13 <= 43200
 c148: t_1_14 - t_0_17 - 43200 y_0_17_1_13 <= 0
 c149: t_0_20 - t_1_15 + 43200 y_0_19_1_15 <= 43200
 c150: t_1_16 - t_0_19 - 43200 y_0_19_1_15 <= 0
 c151: t_0_22 - t_1_17 + 43200 y_0_21_1_17 <= 43200
 c152: t_1_18 - t_0_21 - 43200 y_0_21_1_17 <= 0
 c153: t_0_2 - t_3_19 + 43200 y_0_1_3_19 <= 43200
 c154: t_3_20 - t_0_1 - 43200 y_0_1_3_19 <= 0
 c155: t_0_4 - t_3_21 + 43200 y_0_3_3_21 <= 43200
 c156: t_3_22 - t_0_3 - 43200 y_0_3_3_21 <= 0
 c157: t_0_6 - t_3_23 + 43200 y_0_5_3_23 <= 43200
 c158: t_3_24 - t_0_5 - 43200 y_0_5_3_23 <= 0
 c159: t_0_8 - t_3_25 + 43200 y_0_7_3_25 <= 43200
 c160: t_3_26 - t_0_7 - 43200 y_0_7_3_25 <= 0
 c161: t_0_10 - t_3_27 + 43200 y_0_9_3_27 <= 43200
 c162: t_3_28 - t_0_9 - 43200 y_0_9_3_27 <= 0
 c163: t_0_12 - t_3_29 + 43200 y_0_11_3_29 <= 43200
 c164: t_3_30 - t_0_11 - 43200 y_0_11_3_29 <= 0
 c165: t_0_14 - t_3_31 + 43200 y_0_13_3_31 <= 43200
 c166: t_3_32 - t_0_13 - 43200 y_0_13_3_31 <= 0
 c167: t_0_16 - t_3_33 + 43200 y_0_15_3_33 <= 43200
 c168: t_3_34 - t_0_15 - 43200 y_0_15_3_33 <= 0
 c169: t_0_18 - t_3_35 + 43200 y_0_17_3_35 <= 43200
 c170: t_3_36 - t_0_17 - 43200 y_0_17_3_35 <= 0
 c171: t_0_20 - t_3_37 + 43200 y_0_19_3_37 <= 43200
 c172: t_3_38 - t_0_19 - 43200 y_0_19_3_37 <= 0
 c173: t_0_22 - t_3_39 + 43200 y_0_21_3_39 <= 43200
 c174: t_3_40 - t_0_21 - 43200 y_0_21_3_39 <= 0
 c175: t_0_2 - t_4_19 + 43200 y_0_1_4_19 <= 43200
 c176: t_4_20 - t_0_1 - 43200 y_0_1_4_19 <= 0
 c177: t_0_4 - t_4_17 + 43200 y_0_3_4_17 <= 43200
 c178: t_4_18 - t_0_3 - 43200 y_0_3_4_17 <= 0
 c179: t_0_6 - t_4_15 + 43200 y_0_5_4_15 <= 43200
 c180: t_4_16 - t_0_5 - 43200 y_0_5_4_15 <= 0
 c181: t_0_8 - t_4_13 + 43200 y_0_7_4_13 <= 43200
 c182: t_4_14 - t_0_7 - 43200 y_0_7_4_13 <= 0
 c183: t_0_10 - t_4_11 + 43200 y_0_9_4_11 <= 43200
 c184: t_4_12 - t_0_9 - 43200 y_0_9_4_11 <= 0
 c185: t_0_12 - t_4_9 + 43200 y_0_11_4_9 <= 43200
 c186: t_4_10 - t_0_11 - 43200 y_0_11_4_9 <= 0
 c187: t_0_14 - t_4_7 + 43200 y_0_13_4_7 <= 43200
 c188: t_4_8 - t_0_13 - 43200 y_0_13_4_7 <= 0
 c189: t_0_16 - t_4_5 + 43200 y_0_15_4_5 <= 43200
 c190: t_4_6 - t_0_15 - 43200 y_0_15_4_5 <= 0
 c191: t_0_18 - t_4_3 + 43200 y_0_17_4_3 <= 43200
 c192: t_4_4 - t_0_17 - 43200 y_0_17_4_3 <= 0
 c193: t_0_20 - t_4_1 + 43200 y_0_19_4_1 <= 43200
 c194: t_4_2 - t_0_19 - 43200 y_0_19_4_1 <= 0
 c195: t_1_2 - t_3_23 + 43200 y_1_1_3_23 <= 43200
 c196: t_3_24 - t_1_1 - 43200 y_1_1_3_23 <= 0
 c197: t_1_4 - t_3_25 + 43200 y_1_3_3_25 <= 43200
 c198: t_3_26 - t_1_3 - 43200 y_1_3_3_25 <= 0
 c199: t_1_6 - t_3_27 + 43200 y_1_5_3_27 <= 43200
 c200: t_3_28 - t_1_5 - 43200 y_1_5_3_27 <= 0
 c201: t_1_8 - t_3_29 + 43200 y_1_7_3_29 <= 43200
 c202: t_3_30 - t_1_7 - 43200 y_1_7_3_29 <= 0
 c203: t_1_10 - t_3_31 + 43200 y_1_9_3_31 <= 43200
 c204: t_3_32 - t_1_9 - 43200 y_1_9_3_31 <= 0
 c205: t_1_12 - t_3_33 + 43200 y_1_11_3_33 <= 43200
 c206: t_3_34 - t_1_11 - 43200 y_1_11_3_33 <= 0
 c207: t_1_14 - t_3_35 + 43200 y_1_13_3_35 <= 43200
 c208: t_3_36 - t_1_13 - 43200 y_1_13_3_35 <= 0
 c209: t_1_16 - t_3_37 + 43200 y_1_15_3_37 <= 43200
 c210: t_3_38 - t_1_15 - 43200 y_1_15_3_37 <= 0
 c211: t_1_18 - t_3_39 + 43200 y_1_17_3_39 <= 43200
 c212: t_3_40 - t_1_17 - 43200 y_1_17_3_39 <= 0
 c213: t_1_2 - t_4_15 + 43200 y_1_1_4_15 <= 43200
 c214: t_4_16 - t_1_1 - 43200 y_1_1_4_15 <= 0
 c215: t_1_4 - t_4_13 + 43200 y_1_3_4_13 <= 43200
 c216: t_4_14 - t_1_3 - 43200 y_1_3_4_13 <= 0
 c217: t_1_6 - t_4_11 + 43200 y_1_5_4_11 <= 43200
 c218: t_4_12 - t_1_5 - 43200 y_1_5_4_11 <= 0
 c219: t_1_8 - t_4_9 + 43200 y_1_7_4_9 <= 43200
 c220: t_4_10 - t_1_7 - 43200 y_1_7_4_9 <= 0
 c221: t_1_10 - t_4_7 + 43200 y_1_9_4_7 <= 43200
 c222: t_4_8 - t_1_9 - 43200 y_1_9_4_7 <= 0
 c223: t_1_12 - t_4_5 + 43200 y_1_11_4_5 <= 43200
 c224: t_4_6 - t_1_11 - 43200 y_1_11_4_5 <= 0
 c225: t_1_14 - t_4_3 + 43200 y_1_13_4_3 <= 43200
 c226: t_4_4 - t_1_13 - 43200 y_1_13_4_3 <= 0
 c227: t_1_16 - t_4_1 + 43200 y_1_15_4_1 <= 43200
 c228: t_4_2 - t_1_15 - 43200 y_1_15_4_1 <= 0
 c229: t_2_2 - t_3_5 + 43200 y_2_1_3_5 <= 43200
 c230: t_3_6 - t_2_1 - 43200 y_2_1_3_5 <= 0
 c231: t_2_4 - t_3_3 + 43200 y_2_3_3_3 <= 43200
 c232: t_3_4 - t_2_3 - 43200 y_2_3_3_3 <= 0
 c233: t_2_6 - t_3_1 + 43200 y_2_5_3_1 <= 43200
 c234: t_3_2 - t_2_5 - 43200 y_2_5_3_1 <= 0
 c235: t_2_2 - t_4_33 + 43200 y_2_1_4_33 <= 43200
 c236: t_4_34 - t_2_1 - 43200 y_2_1_4_33 <= 0
 c237: t_2_4 - t_4_35 + 43200 y_2_3_4_35 <= 43200
 c238: t_4_36 - t_2_3 - 43200 y_2_3_4_35 <= 0
 c239: t_2_6 - t_4_37 + 43200 y_2_5_4_37 <= 43200
 c240: t_4_38 - t_2_5 - 43200 y_2_5_4_37 <= 0
 c241: t_3_2 - t_4_37 + 43200 y_3_1_4_37 <= 43200
 c242: t_4_38 - t_3_1 - 43200 y_3_1_4_37 <= 0
 c243: t_3_4 - t_4_35 + 43200 y_3_3_4_35 <= 43200
 c244: t_4_36 - t_3_3 - 43200 y_3_3_4_35 <= 0
 c245: t_3_6 - t_4_33 + 43200 y_3_5_4_33 <= 43200
 c246: t_4_34 - t_3_5 - 43200 y_3_5_4_33 <= 0
 c247: t_3_8 - t_4_31 + 43200 y_3_7_4_31 <= 43200
 c248: t_4_32 - t_3_7 - 43200 y_3_7_4_31 <= 0
 c249: t_3_10 - t_4_29 + 43200 y_3_9_4_29 <= 43200
 c250: t_4_30 - t_3_9 - 43200 y_3_9_4_29 <= 0
 c251: t_3_12 - t_4_27 + 43200 y_3_11_4_27 <= 43200
 c252: t_4_28 - t_3_11 - 43200 y_3_11_4_27 <= 0
 c253: t_3_14 - t_4_25 + 43200 y_3_13_4_25 <= 43200
 c254: t_4_26 - t_3_13 - 43200 y_3_13_4_25 <= 0
 c255: t_3_16 - t_4_23 + 43200 y_3_15_4_23 <= 43200
 c256: t_4_24 - t_3_15 - 43200 y_3_15_4_23 <= 0
 c257: t_3_18 - t_4_21 + 43200 y_3_17_4_21 <= 43200
 c258: t_4_22 - t_3_17 - 43200 y_3_17_4_21 <= 0
 c259: t_3_20 - t_4_19 + 43200 y_3_19_4_19 <= 43200
 c260: t_4_20 - t_3_19 - 43200 y_3_19_4_19 <= 0
 c261: t_3_22 - t_4_17 + 43200 y_3_21_4_17 <= 43200
 c262: t_4_18 - t_3_21 - 43200 y_3_21_4_17 <= 0
 c263: t_3_24 - t_4_15 + 43200 y_3_23_4_15 <= 43200
 c264: t_4_16 - t_3_23 - 43200 y_3_23_4_15 <= 0
 c265: t_3_26 - t_4_13 + 43200 y_3_25_4_13 <= 43200
 c266: t_4_14 - t_3_25 - 43200 y_3_25_4_13 <= 0
 c267: t_3_28 - t_4_11 + 43200 y_3_27_4_11 <= 43200
 c268: t_4_12 - t_3_27 - 43200 y_3_27_4_11 <= 0
 c269: t_3_30 - t_4_9 + 43200 y_3_29_4_9 <= 43200
 c270: t_4_10 - t_3_29 - 43200 y_3_29_4_9 <= 0
 c271: t_3_32 - t_4_7 + 43200 y_3_31_4_7 <= 43200
 c272: t_4_8 - t_3_31 - 43200 y_3_31_4_7 <= 0
 c273: t_3_34 - t_4_5 + 43200 y_3_33_4_5 <= 43200
 c274: t_4_6 - t_3_33 - 43200 y_3_33_4_5 <= 0
 c275: t_3_36 - t_4_3 + 43200 y_3_35_4_3 <= 43200
 c276: t_4_4 - t_3_35 - 43200 y_3_35_4_3 <= 0
 c277: t_3_38 - t_4_1 + 43200 y_3_37_4_1 <= 43200
 c278: t_4_2 - t_3_37 - 43200 y_3_37_4_1 <= 0
 c279: t_0_31 - 43200 thr_0_31_0 <= 13505
 c280: t_0_31 - 43200 thr_0_31_180 <= 13685
 c281: t_0_31 - 43200 thr_0_31_360 <= 13865
 c282: t_1_17 - 43200 thr_1_17_0 <= 1821
 c283: t_1_17 - 43200 thr_1_17_180 <= 2001
 c284: t_1_17 - 43200 thr_1_17_360 <= 2181
 c285: t_2_5 - 43200 thr_2_5_0 <= -349
 c286: t_2_5 - 43200 thr_2_5_180 <= -169
 c287: t_2_5 - 43200 thr_2_5_360 <= 11
 c288: t_3_39 - 43200 thr_3_39_0 <= 5421
 c289: t_3_39 - 43200 thr_3_39_180 <= 5601
 c290: t_3_39 - 43200 thr_3_39_360 <= 5781
 c291: t_4_37 - 43200 thr_4_37_0 <= 3251
 c292: t_4_37 - 43200 thr_4_37_180 <= 3431
 c293: t_4_37 - 43200 thr_4_37_360 <= 3611

Bounds
 1177 <= t_0_0 <= 43200
 1941 <= t_0_1 <= 43200
 2078 <= t_0_2 <= 43200
 2078 <= t_0_3 <= 43200
 2183 <= t_0_4 <= 43200
 2183 <= t_0_5 <= 43200
 2400 <= t_0_6 <= 43200
 2400 <= t_0_7 <= 43200
 2508 <= t_0_8 <= 43200
 2508 <= t_0_9 <= 43200
 2670 <= t_0_10 <= 43200
 2670 <= t_0_11 <= 43200
 3095 <= t_0_12 <= 43200
 3095 <= t_0_13 <= 43200
 3395 <= t_0_14 <= 43200
 3395 <= t_0_15 <= 43200
 3741 <= t_0_16 <= 43200
 3981 <= t_0_17 <= 43200
 4444 <= t_0_18 <= 43200
 4444 <= t_0_19 <= 43200
 4685 <= t_0_20 <= 43200
 4685 <= t_0_21 <= 43200
 5181 <= t_0_22 <= 43200
 11541 <= t_0_23 <= 43200
 11931 <= t_0_24 <= 43200
 11931 <= t_0_25 <= 43200
 12211 <= t_0_26 <= 43200
 12211 <= t_0_27 <= 43200
 12741 <= t_0_28 <= 43200
 13041 <= t_0_29 <= 43200
 13505 <= t_0_30 <= 43200
 13505 <= t_0_31 <= 43200
 14061 <= t_0_32 <= 43200
       t_1_0 <= 43200
       t_1_1 <= 43200
 92 <= t_1_2 <= 43200
 92 <= t_1_3 <= 43200
 172 <= t_1_4 <= 43200
 172 <= t_1_5 <= 43200
 294 <= t_1_6 <= 43200
 334 <= t_1_7 <= 43200
 814 <= t_1_8 <= 43200
 994 <= t_1_9 <= 43200
 1234 <= t_1_10 <= 43200
 1234 <= t_1_11 <= 43200
 1444 <= t_1_12 <= 43200
 1474 <= t_1_13 <= 43200
 1774 <= t_1_14 <= 43200
 1774 <= t_1_15 <= 43200
 1954 <= t_1_16 <= 43200
 1954 <= t_1_17 <= 43200
 2254 <= t_1_18 <= 43200
       t_2_0 <= 43200
       t_2_1 <= 43200
       t_2_2 <= 43200
 30 <= t_2_3 <= 43200
 140 <= t_2_4 <= 43200
 140 <= t_2_5 <= 43200
 390 <= t_2_6 <= 43200
 1728 <= t_3_0 <= 43200
 1788 <= t_3_1 <= 43200
 1940 <= t_3_2 <= 43200
 1940 <= t_3_3 <= 43200
 2058 <= t_3_4 <= 43200
 2088 <= t_3_5 <= 43200
 2178 <= t_3_6 <= 43200
 2208 <= t_3_7 <= 43200
 2298 <= t_3_8 <= 43200
 2328 <= t_3_9 <= 43200
 2447 <= t_3_10 <= 43200
 2447 <= t_3_11 <= 43200
 2492 <= t_3_12 <= 43200
 2492 <= t_3_13 <= 43200
 2628 <= t_3_14 <= 43200
 2688 <= t_3_15 <= 43200
 2898 <= t_3_16 <= 43200
 2928 <= t_3_17 <= 43200
 3078 <= t_3_18 <= 43200
 3108 <= t_3_19 <= 43200
 3258 <= t_3_20 <= 43200
 3288 <= t_3_21 <= 43200
 3378 <= t_3_22 <= 43200
 3408 <= t_3_23 <= 43200
 3586 <= t_3_24 <= 43200
 3586 <= t_3_25 <= 43200
 3666 <= t_3_26 <= 43200
 3666 <= t_3_27 <= 43200
 3788 <= t_3_28 <= 43200
 3828 <= t_3_29 <= 43200
 4308 <= t_3_30 <= 43200
 4488 <= t_3_31 <= 43200
 4728 <= t_3_32 <= 43200
 4728 <= t_3_33 <= 43200
 4938 <= t_3_34 <= 43200
 4968 <= t_3_35 <= 43200
 5268 <= t_3_36 <= 43200
 5268 <= t_3_37 <= 43200
 5448 <= t_3_38 <= 43200
 5448 <= t_3_39 <= 43200
 5748 <= t_3_40 <= 43200
       t_4_0 <= 43200
       t_4_1 <= 43200
 96 <= t_4_2 <= 43200
 96 <= t_4_3 <= 43200
 366 <= t_4_4 <= 43200
 396 <= t_4_5 <= 43200
 636 <= t_4_6 <= 43200
 636 <= t_4_7 <= 43200
 876 <= t_4_8 <= 43200
 876 <= t_4_9 <= 43200
 1196 <= t_4_10 <= 43200
 1236 <= t_4_11 <= 43200
 1343 <= t_4_12 <= 43200
 1343 <= t_4_13 <= 43200
 1415 <= t_4_14 <= 43200
 1415 <= t_4_15 <= 43200
 1626 <= t_4_16 <= 43200
 1656 <= t_4_17 <= 43200
 1806 <= t_4_18 <= 43200
 1836 <= t_4_19 <= 43200
 1926 <= t_4_20 <= 43200
 1956 <= t_4_21 <= 43200
 2106 <= t_4_22 <= 43200
 2136 <= t_4_23 <= 43200
 2436 <= t_4_24 <= 43200
 2616 <= t_4_25 <= 43200
 2706 <= t_4_26 <= 43200
 2706 <= t_4_27 <= 43200
 2736 <= t_4_28 <= 43200
 2736 <= t_4_29 <= 43200
 2886 <= t_4_30 <= 43200
 2916 <= t_4_31 <= 43200
 3006 <= t_4_32 <= 43200
 3036 <= t_4_33 <= 43200
 3126 <= t_4_34 <= 43200
 3156 <= t_4_35 <= 43200
 3266 <= t_4_36 <= 43200
 3266 <= t_4_37 <= 43200
 3516 <= t_4_38 <= 43200
 0 <= y_0_5_1_1 <= 1
 0 <= y_0_7_1_3 <= 1
 0 <= y_0_9_1_5 <= 1
 0 <= y_0_11_1_7 <= 1
 0 <= y_0_13_1_9 <= 1
 0 <= y_0_15_1_11 <= 1
 0 <= y_0_17_1_13 <= 1
 0 <= y_0_19_1_15 <= 1
 0 <= y_0_21_1_17 <= 1
 0 <= y_0_1_3_19 <= 1
 0 <= y_0_3_3_21 <= 1
 0 <= y_0_5_3_23 <= 1
 0 <= y_0_7_3_25 <= 1
 0 <= y_0_9_3_27 <= 1
 0 <= y_0_11_3_29 <= 1
 0 <= y_0_13_3_31 <= 1
 0 <= y_0_15_3_33 <= 1
 0 <= y_0_17_3_35 <= 1
 0 <= y_0_19_3_37 <= 1
 0 <= y_0_21_3_39 <= 1
 0 <= y_0_1_4_19 <= 1
 0 <= y_0_3_4_17 <= 1
 0 <= y_0_5_4_15 <= 1
 0 <= y_0_7_4_13 <= 1
 0 <= y_0_9_4_11 <= 1
 0 <= y_0_11_4_9 <= 1
 0 <= y_0_13_4_7 <= 1
 0 <= y_0_15_4_5 <= 1
 0 <= y_0_17_4_3 <= 1
 0 <= y_0_19_4_1 <= 1
 0 <= y_1_1_3_23 <= 1
 0 <= y_1_3_3_25 <= 1
 0 <= y_1_5_3_27 <= 1
 0 <= y_1_7_3_29 <= 1
 0 <= y_1_9_3_31 <= 1
 0 <= y_1_11_3_33 <= 1
 0 <= y_1_13_3_35 <= 1
 0 <= y_1_15_3_37 <= 1
 0 <= y_1_17_3_39 <= 1
 0 <= y_1_1_4_15 <= 1
 0 <= y_1_3_4_13 <= 1
 0 <= y_1_5_4_11 <= 1
 0 <= y_1_7_4_9 <= 1
 0 <= y_1_9_4_7 <= 1
 0 <= y_1_11_4_5 <= 1
 0 <= y_1_13_4_3 <= 1
 0 <= y_1_15_4_1 <= 1
 0 <= y_2_1_3_5 <= 1
 0 <= y_2_3_3_3 <= 1
 0 <= y_2_5_3_1 <= 1
 0 <= y_2_1_4_33 <= 1
 0 <= y_2_3_4_35 <= 1
 0 <= y_2_5_4_37 <= 1
 0 <= y_3_1_4_37 <= 1
 0 <= y_3_3_4_35 <= 1
 0 <= y_3_5_4_33 <= 1
 0 <= y_3_7_4_31 <= 1
 0 <= y_3_9_4_29 <= 1
 0 <= y_3_11_4_27 <= 1
 0 <= y_3_13_4_25 <= 1
 0 <= y_3_15_4_23 <= 1
 0 <= y_3_17_4_21 <= 1
 0 <= y_3_19_4_19 <= 1
 0 <= y_3_21_4_17 <= 1
 0 <= y_3_23_4_15 <= 1
 0 <= y_3_25_4_13 <= 1
 0 <= y_3_27_4_11 <= 1
 0 <= y_3_29_4_9 <= 1
 0 <= y_3_31_4_7 <= 1
 0 <= y_3_33_4_5 <= 1
 0 <= y_3_35_4_3 <= 1
 0 <= y_3_37_4_1 <= 1
 0 <= thr_0_31_0 <= 1
 0 <= thr_0_31_180 <= 1
 0 <= thr_0_31_360 <= 1
 0 <= thr_1_17_0 <= 1
 0 <= thr_1_17_180 <= 1
 0 <= thr_1_17_360 <= 1
 0 <= thr_2_5_0 <= 1
 0 <= thr_2_5_180 <= 1
 0 <= thr_2_5_360 <= 1
 0 <= thr_3_39_0 <= 1
 0 <= thr_3_39_180 <= 1
 0 <= thr_3_39_360 <= 1
 0 <= thr_4_37_0 <= 1
 0 <= thr_4_37_180 <= 1
 0 <= thr_4_37_360 <= 1

Binaries
 y_0_5_1_1 y_0_7_1_3 y_0_9_1_5 y_0_11_1_7 y_0_13_1_9 y_0_15_1_11 y_0_17_1_13
 y_0_19_1_15 y_0_21_1_17 y_0_1_3_19 y_0_3_3_21 y_0_5_3_23 y_0_7_3_25 y_0_9_3_27
 y_0_11_3_29 y_0_13_3_31 y_0_15_3_33 y_0_17_3_35 y_0_19_3_37 y_0_21_3_39
 y_0_1_4_19 y_0_3_4_17 y_0_5_4_15 y_0_7_4_13 y_0_9_4_11 y_0_11_4_9 y_0_13_4_7
 y_0_15_4_5 y_0_17_4_3 y_0_19_4_1 y_1_1_3_23 y_1_3_3_25 y_1_5_3_27 y_1_7_3_29
 y_1_9_3_31 y_1_11_3_33 y_1_13_3_35 y_1_15_3_37 y_1_17_3_39 y_1_1_4_15
 y_1_3_4_13 y_1_5_4_11 y_1_7_4_9 y_1_9_4_7 y_1_11_4_5 y_1_13_4_3 y_1_15_4_1
 y_2_1_3_5 y_2_3_3_3 y_2_5_3_1 y_2_1_4_33 y_2_3_4_35 y_2_5_4_37 y_3_1_4_37
 y_3_3_4_35 y_3_5_4_33 y_3_7_4_31 y_3_9_4_29 y_3_11_4_27 y_3_13_4_25 y_3_15_4_23
 y_3_17_4_21 y_3_19_4_19 y_3_21_4_17 y_3_23_4_15 y_3_25_4_13 y_3_27_4_11
 y_3_29_4_9 y_3_31_4_7 y_3_33_4_5 y_3_35_4_3 y_3_37_4_1 thr_0_31_0 thr_0_31_180
 thr_0_31_360 thr_1_17_0 thr_1_17_180 thr_1_17_360 thr_2_5_0 thr_2_5_180
 thr_2_5_360 thr_3_39_0 thr_3_39_180 thr_3_39_360 thr_4_37_0 thr_4_37_180
 thr_4_37_360
End
